10 2
1 2 63
1 3 76
1 4 14
1 5 77
1 6 28
1 7 74
1 8 72
1 9 10
1 10 88
2 3 69
2 4 14
2 5 20
2 6 7
2 7 11
2 8 98
2 9 60
2 10 23
3 4 69
3 5 34
3 6 2
3 7 91
3 8 84
3 9 82
3 10 99
4 5 58
4 6 14
4 7 48
4 8 59
4 9 17
4 10 85
5 6 10
5 7 30
5 8 11
5 9 91
5 10 73
6 7 38
6 8 84
6 9 61
6 10 67
7 8 11
7 9 38
7 10 88
8 9 9
8 10 26
9 10 98
